p cnf 76 290
4 2 0
4 -3 0
-2 3 -4 0
-5 -4 0
-5 2 0
4 -2 5 0
5 -6 -7 0
-5 6 -7 0
5 6 7 0
-5 -6 7 0
-8 1 0
-8 -7 0
-1 7 8 0
-11 1 0
-11 -10 0
-1 10 11 0
12 -11 0
12 -10 0
11 10 -12 0
13 -12 0
13 -5 0
12 5 -13 0
14 9 0
14 -13 0
-9 13 -14 0
-8 -14 -15 0
8 14 -15 0
-8 14 15 0
8 -14 15 0
-17 16 0
-17 1 0
-16 -1 17 0
2 5 -18 0
-2 -5 -18 0
2 -5 18 0
-2 5 18 0
-19 4 -20 0
19 -4 -20 0
-19 -4 20 0
19 4 20 0
21 -10 0
21 16 0
10 -16 -21 0
22 -20 0
22 21 0
20 -21 -22 0
-23 7 0
-23 -9 0
-7 9 23 0
24 -23 0
24 -21 0
23 21 -24 0
-22 -24 -25 0
22 24 -25 0
-22 24 25 0
22 -24 25 0
-18 -25 -26 0
18 25 -26 0
-18 25 26 0
18 -25 26 0
-28 -12 0
-28 -27 0
12 27 28 0
-29 6 0
-29 3 0
-6 -3 29 0
30 -28 0
30 -29 0
28 29 -30 0
-31 26 0
-31 -30 0
-26 30 31 0
32 17 0
32 31 0
-17 -31 -32 0
33 15 0
33 -32 0
-15 32 -33 0
-7 21 -34 0
7 -21 -34 0
-7 -21 34 0
7 21 34 0
-16 4 -35 0
16 -4 -35 0
-16 -4 35 0
16 4 35 0
34 -35 -36 0
-34 35 -36 0
34 35 36 0
-34 -35 36 0
-37 6 0
-37 -2 0
-6 2 37 0
38 21 0
38 37 0
-21 -37 -38 0
-39 -36 0
-39 38 0
36 -38 39 0
33 39 -40 0
-33 -39 -40 0
33 -39 40 0
-33 39 40 0
-42 -41 0
-42 -6 0
41 6 42 0
-43 13 0
-43 -41 0
-13 41 43 0
-44 42 0
-44 -43 0
-42 43 44 0
45 -13 0
45 -19 0
13 19 -45 0
45 -12 -46 0
-45 12 -46 0
45 12 46 0
-45 -12 46 0
47 9 0
47 -21 0
-9 21 -47 0
-48 47 0
-48 -9 0
-47 9 48 0
46 -48 -49 0
-46 48 -49 0
46 48 49 0
-46 -48 49 0
44 -49 -50 0
-44 49 -50 0
44 49 50 0
-44 -49 50 0
21 -6 -51 0
-21 6 -51 0
21 6 51 0
-21 -6 51 0
-52 -51 0
-52 16 0
51 -16 52 0
53 -2 0
53 -52 0
2 52 -53 0
54 -37 0
54 -19 0
37 19 -54 0
55 54 0
55 10 0
-54 -10 -55 0
56 -53 0
56 55 0
53 -55 -56 0
57 -50 0
57 56 0
50 -56 -57 0
-58 -6 0
-58 1 0
6 -1 58 0
59 -1 0
59 6 0
1 -6 -59 0
58 -59 -60 0
-58 59 -60 0
58 59 60 0
-58 -59 60 0
21 11 -61 0
-21 -11 -61 0
21 -11 61 0
-21 11 61 0
-62 60 0
-62 61 0
-60 -61 62 0
-21 58 -63 0
21 -58 -63 0
-21 -58 63 0
21 58 63 0
6 -3 -64 0
-6 3 -64 0
6 3 64 0
-6 -3 64 0
-2 -64 -65 0
2 64 -65 0
-2 64 65 0
2 -64 65 0
65 -21 -66 0
-65 21 -66 0
65 21 66 0
-65 -21 66 0
-67 -63 0
-67 -66 0
63 66 67 0
-68 -62 0
-68 67 0
62 -67 68 0
-69 16 0
-69 3 0
-16 -3 69 0
70 68 0
70 -69 0
-68 69 -70 0
-71 3 0
-71 23 0
-3 -23 71 0
19 -7 -72 0
-19 7 -72 0
19 7 72 0
-19 -7 72 0
71 -72 -73 0
-71 72 -73 0
71 72 73 0
-71 -72 73 0
70 -73 -74 0
-70 73 -74 0
70 73 74 0
-70 -73 74 0
75 -57 0
75 74 0
57 -74 -75 0
-40 -75 -76 0
40 75 -76 0
-40 75 76 0
40 -75 76 0
-9 -49 -32 16 0
-40 -37 -7 -66 38 0
-17 -53 67 0
-68 -45 25 0
-48 -66 0
-51 -19 -75 0
63 26 -66 49 -21 -74 0
72 7 0
58 73 -32 67 -35 45 0
-41 73 -34 0
-28 -41 -19 0
-54 65 -73 -36 64 0
-19 59 0
-28 36 -41 -75 -45 72 0
-37 -63 -3 0
-14 51 43 0
-68 15 63 0
-4 41 61 71 0
-19 21 -15 0
-2 -53 21 7 0
54 38 -2 -1 0
26 27 -76 -40 39 0
-70 49 0
-10 66 0
29 -37 -38 16 -1 0
68 -17 6 -65 -62 2 0
52 1 -65 75 0
-44 39 14 -45 53 0
18 62 7 9 69 0
42 -4 0
74 -65 0
73 15 -41 0
25 -29 -71 30 3 -45 0
-9 -20 0
44 32 50 -18 -4 -67 0
-60 -70 -62 0
-68 21 0
-7 12 -19 -8 0
-75 -62 42 -18 -53 -48 0
-71 -2 35 0
63 -8 -26 0
53 12 33 -16 72 -1 0
55 72 0
61 22 -23 10 1 0
40 -68 37 0
41 64 24 -73 0
68 -27 69 0
-64 -41 -42 8 0
-5 40 73 -9 0
56 -58 0
-46 11 73 -19 0
-64 72 -29 0
-76 -67 27 71 0
-34 -59 -15 0
50 -45 -11 52 9 0
57 13 62 -53 33 18 0
42 54 -10 70 55 0
38 65 -69 68 40 0
11 -42 12 -56 37 0
52 25 69 33 0
1 46 48 30 -9 0
-56 23 29 67 -31 0
27 67 -18 -3 32 -26 0
-42 -53 4 -24 6 0
-54 -7 37 0
57 28 47 -11 0
-24 -65 66 27 -40 -18 0
76 0
